(set-logic QF_S)
(declare-fun T_1a () Bool)
(declare-fun T_SELECT_3 () Bool)
(declare-fun I0_37 () Int)
(declare-fun PCTEMP_LHS_3 () Int)
(declare-fun T0_37 () String)
(declare-fun T1_37 () String)
(declare-fun T2_37 () String)
(declare-fun T3_37 () String)
(declare-fun T4_37 () String)
(declare-fun T5_37 () String)
(declare-fun T_18 () String)
(assert (= T_18 (str.++ T0_37 T1_37)))
(assert (= T1_37 (str.++ T2_37 T3_37)))
(assert (= T2_37 (str.++ T4_37 T5_37)))
(assert (not (str.in.re T4_37 (str.to.re "gclid="))))
(assert (= T5_37 "gclid="))
(assert T_1a)
(assert (= T_1a (< (- 1) PCTEMP_LHS_3)))
(assert (= PCTEMP_LHS_3 (+ I0_37 0)))
(assert (= T_SELECT_3 (not (= PCTEMP_LHS_3 (- 1)))))
(assert (= 0 (str.len T0_37))) ; len 0
(assert (= I0_37 (str.len T4_37))) ; len 1
(assert T_SELECT_3)
(check-sat)
